16 4
96 69 44 39 85 25 71 66 53 48 48 49 64 91 48 103
103 84 34 39 69 40 75 54 57 43 68 55 71 106 62 79
104 61 55 29 63 30 61 53 64 64 57 75 71 101 45 84
89 82 61 25 76 40 81 77 63 51 53 52 92 100 56 81
